decision_x1=[0,2];
decision_x2=[0,2];
decision_x3=[0,2];
decision_x4=[0,2];
decision_x5=[0,2];
decision_x6=[0,2];
decision_x7=[0,2];
decision_x8=[0,2];
decision_x9=[0,2];
decision_x10=[0,2];
decision_x11=[0,2];
decision_x12=[0,2];
random_y1=[0,2];
random_y2=[0,2];
random_y3=[0,2];
random_y4=[0,2];
random_y5=[0,2];
random_y6=[0,2];
random_y7=[0,2];
random_y8=[0,2];
random_y9=[0,2];
random_y10=[0,2];
random_y11=[0,2];
random_y12=[0,2];
constraint_x3_x1=[
0,0,77|
0,1,74|
0,2,54|
1,0,16|
1,1,16|
1,2,61|
2,0,79|
2,1,30|
2,2,97|
];
constraint_x4_x3=[
0,0,70|
0,1,88|
0,2,26|
1,0,69|
1,1,50|
1,2,94|
2,0,44|
2,1,34|
2,2,42|
];
constraint_x5_x1=[
0,0,75|
0,1,16|
0,2,74|
1,0,85|
1,1,91|
1,2,73|
2,0,87|
2,1,98|
2,2,11|
];
constraint_x5_x2=[
0,0,89|
0,1,66|
0,2,10|
1,0,45|
1,1,17|
1,2,93|
2,0,86|
2,1,54|
2,2,53|
];
constraint_x5_x3=[
0,0,70|
0,1,99|
0,2,42|
1,0,55|
1,1,79|
1,2,52|
2,0,34|
2,1,74|
2,2,77|
];
constraint_x6_x1=[
0,0,91|
0,1,55|
0,2,83|
1,0,82|
1,1,46|
1,2,4.1|
2,0,29|
2,1,77|
2,2,12|
];
constraint_x6_x2=[
0,0,49|
0,1,59|
0,2,71|
1,0,25|
1,1,88|
1,2,79|
2,0,67|
2,1,23|
2,2,62|
];
constraint_x6_x3=[
0,0,68|
0,1,39|
0,2,29|
1,0,65|
1,1,78|
1,2,59|
2,0,24|
2,1,36|
2,2,18|
];
constraint_x7_x4=[
0,0,11|
0,1,29|
0,2,87|
1,0,72|
1,1,65|
1,2,52|
2,0,50|
2,1,56|
2,2,34|
];
constraint_x7_x5=[
0,0,50|
0,1,49|
0,2,89|
1,0,95|
1,1,63|
1,2,51|
2,0,9|
2,1,9.2|
2,2,35|
];
constraint_x7_x6=[
0,0,47|
0,1,45|
0,2,40|
1,0,77|
1,1,54|
1,2,64|
2,0,17|
2,1,77|
2,2,41|
];
constraint_x8_x4=[
0,0,73|
0,1,79|
0,2,15|
1,0,3.2|
1,1,61|
1,2,80|
2,0,14|
2,1,87|
2,2,73|
];
constraint_x9_x2=[
0,0,69|
0,1,94|
0,2,75|
1,0,50|
1,1,97|
1,2,99|
2,0,59|
2,1,83|
2,2,48|
];
constraint_x9_x5=[
0,0,14|
0,1,34|
0,2,76|
1,0,65|
1,1,37|
1,2,95|
2,0,86|
2,1,13|
2,2,61|
];
constraint_x9_x6=[
0,0,99|
0,1,69|
0,2,70|
1,0,88|
1,1,84|
1,2,69|
2,0,14|
2,1,34|
2,2,96|
];
constraint_x9_x7=[
0,0,7.7|
0,1,88|
0,2,30|
1,0,42|
1,1,30|
1,2,57|
2,0,81|
2,1,15|
2,2,64|
];
constraint_x9_x8=[
0,0,72|
0,1,74|
0,2,96|
1,0,82|
1,1,82|
1,2,38|
2,0,34|
2,1,44|
2,2,13|
];
constraint_x10_x1=[
0,0,17|
0,1,92|
0,2,84|
1,0,30|
1,1,80|
1,2,4.6|
2,0,49|
2,1,43|
2,2,12|
];
constraint_x10_x3=[
0,0,18|
0,1,60|
0,2,61|
1,0,11|
1,1,49|
1,2,80|
2,0,65|
2,1,49|
2,2,0.83|
];
constraint_x10_x5=[
0,0,55|
0,1,25|
0,2,50|
1,0,70|
1,1,78|
1,2,16|
2,0,14|
2,1,44|
2,2,38|
];
constraint_x10_x7=[
0,0,70|
0,1,89|
0,2,34|
1,0,11|
1,1,2.5|
1,2,42|
2,0,84|
2,1,93|
2,2,31|
];
constraint_x10_x8=[
0,0,84|
0,1,62|
0,2,57|
1,0,26|
1,1,70|
1,2,15|
2,0,92|
2,1,75|
2,2,2.1|
];
constraint_x10_x9=[
0,0,68|
0,1,18|
0,2,38|
1,0,29|
1,1,95|
1,2,91|
2,0,25|
2,1,5|
2,2,72|
];
constraint_x11_x1=[
0,0,22|
0,1,51|
0,2,92|
1,0,29|
1,1,40|
1,2,4.3|
2,0,30|
2,1,72|
2,2,38|
];
constraint_x11_x3=[
0,0,78|
0,1,16|
0,2,35|
1,0,19|
1,1,31|
1,2,80|
2,0,60|
2,1,21|
2,2,22|
];
constraint_x11_x7=[
0,0,55|
0,1,28|
0,2,96|
1,0,49|
1,1,46|
1,2,63|
2,0,65|
2,1,28|
2,2,20|
];
constraint_x11_x9=[
0,0,75|
0,1,28|
0,2,3.5|
1,0,22|
1,1,79|
1,2,69|
2,0,72|
2,1,38|
2,2,64|
];
constraint_x12_x1=[
0,0,16|
0,1,96|
0,2,51|
1,0,83|
1,1,85|
1,2,72|
2,0,87|
2,1,67|
2,2,17|
];
constraint_x12_x2=[
0,0,1.1|
0,1,44|
0,2,75|
1,0,16|
1,1,23|
1,2,89|
2,0,73|
2,1,79|
2,2,44|
];
constraint_x12_x4=[
0,0,80|
0,1,79|
0,2,9.4|
1,0,53|
1,1,29|
1,2,40|
2,0,90|
2,1,86|
2,2,31|
];
constraint_x12_x5=[
0,0,10|
0,1,35|
0,2,66|
1,0,67|
1,1,92|
1,2,81|
2,0,8.8|
2,1,55|
2,2,28|
];
constraint_x12_x6=[
0,0,90|
0,1,1.3|
0,2,88|
1,0,55|
1,1,48|
1,2,37|
2,0,93|
2,1,41|
2,2,31|
];
constraint_x12_x10=[
0,0,13|
0,1,68|
0,2,64|
1,0,77|
1,1,76|
1,2,6.6|
2,0,80|
2,1,81|
2,2,4|
];
constraint_x1_y1=[
0,0,49|
0,1,62|
0,2,19|
1,0,95|
1,1,11|
1,2,52|
2,0,40|
2,1,89|
2,2,53|
];
constraint_x2_y2=[
0,0,9.9|
0,1,45|
0,2,58|
1,0,43|
1,1,26|
1,2,38|
2,0,61|
2,1,69|
2,2,49|
];
constraint_x3_y3=[
0,0,96|
0,1,80|
0,2,9.7|
1,0,13|
1,1,72|
1,2,14|
2,0,40|
2,1,58|
2,2,78|
];
constraint_x4_y4=[
0,0,64|
0,1,33|
0,2,25|
1,0,46|
1,1,90|
1,2,23|
2,0,32|
2,1,90|
2,2,95|
];
constraint_x5_y5=[
0,0,94|
0,1,32|
0,2,7.8|
1,0,84|
1,1,27|
1,2,84|
2,0,93|
2,1,87|
2,2,8.5|
];
constraint_x6_y6=[
0,0,32|
0,1,79|
0,2,44|
1,0,78|
1,1,61|
1,2,47|
2,0,23|
2,1,47|
2,2,26|
];
constraint_x7_y7=[
0,0,49|
0,1,1|
0,2,37|
1,0,61|
1,1,9.3|
1,2,9.8|
2,0,85|
2,1,5.6|
2,2,51|
];
constraint_x8_y8=[
0,0,96|
0,1,1.2|
0,2,42|
1,0,7.1|
1,1,94|
1,2,60|
2,0,67|
2,1,59|
2,2,83|
];
constraint_x9_y9=[
0,0,52|
0,1,59|
0,2,79|
1,0,83|
1,1,21|
1,2,72|
2,0,81|
2,1,70|
2,2,0.96|
];
constraint_x10_y10=[
0,0,56|
0,1,19|
0,2,33|
1,0,13|
1,1,38|
1,2,13|
2,0,41|
2,1,15|
2,2,0.66|
];
constraint_x11_y11=[
0,0,88|
0,1,17|
0,2,6.2|
1,0,37|
1,1,70|
1,2,60|
2,0,73|
2,1,82|
2,2,49|
];
constraint_x12_y12=[
0,0,64|
0,1,53|
0,2,57|
1,0,63|
1,1,35|
1,2,76|
2,0,0.19|
2,1,44|
2,2,21|
];
initial_distribution_y1=[0.31,0.24,0.44];
initial_distribution_y2=[0.28,0.24,0.48];
initial_distribution_y3=[0.39,0.34,0.27];
initial_distribution_y4=[0.72,0.2,0.074];
initial_distribution_y5=[0.23,0.18,0.59];
initial_distribution_y6=[0.23,0.44,0.33];
initial_distribution_y7=[0.11,0.24,0.65];
initial_distribution_y8=[0.19,0.24,0.57];
initial_distribution_y9=[0.56,0.24,0.2];
initial_distribution_y10=[0.17,0.091,0.74];
initial_distribution_y11=[0.3,0.18,0.52];
initial_distribution_y12=[0.25,0.33,0.42];
transition_y1=[
0.25,0.15,0.6|
0.072,0.28,0.65|
0.34,0.37,0.29|
];
transition_y2=[
0.12,0.53,0.35|
0.35,0.37,0.28|
0.17,0.27,0.56|
];
transition_y3=[
0.24,0.24,0.52|
0.53,0.35,0.12|
0.28,0.59,0.14|
];
transition_y4=[
0.015,0.46,0.53|
0.35,0.19,0.46|
0.74,0.072,0.19|
];
transition_y5=[
0.097,0.15,0.75|
0.007,0.44,0.55|
0.52,0.18,0.3|
];
transition_y6=[
0.59,0.13,0.28|
0.65,0.26,0.082|
0.38,0.056,0.56|
];
transition_y7=[
0.44,0.25,0.31|
0.36,0.51,0.13|
0.019,0.34,0.64|
];
transition_y8=[
0.37,0.17,0.46|
0.11,0.13,0.76|
0.56,0.29,0.15|
];
transition_y9=[
0.39,0.45,0.16|
0.014,0.68,0.3|
0.097,0.11,0.79|
];
transition_y10=[
0.39,0.22,0.39|
0.22,0.22,0.57|
0.11,0.32,0.57|
];
transition_y11=[
0.43,0.47,0.11|
0.71,0.13,0.16|
0.34,0.61,0.049|
];
transition_y12=[
0.38,0.42,0.2|
0.48,0.039,0.48|
0.34,0.44,0.22|
];
